24810
24816
24816
24816
24816
24816
24816
24822
24880
24880
24880
24880
24880
24880
24880
24880
24880
24880
24880
24880
24880
24880
24880
24880
24880
24880
24880
24880
24880
24880
24880
24880
24880
24880
24880
24880
24880
24880
24880
24880
24880
24880
24944
24944
24944
24944
24944
24944
24944
24944
24944
24944
24944
24944
24944
24944
24944
24944
24944
24944
24944
24944
24944
24944
24944
24944
24944
24944
24944
24944
24944
24944
24944
24944
24944
24944
24944
24944
24944
24944
24944
24944
24944
24944
24944
24944
24944
24944
24944
24944
24944
24944
24944
24944
24944
24944
24944
24944
24944
